benchmarks/VRPTW/TSPTW/solution/n80w20.003.txt.solution
1 47 12 51 9 67 35 45 49 42 11 7 4 46 53 70 14 25 3 62 18 21 76 10 31 26 37 74 78 40 43 59 60 56 44 50 57 73 65 52 79 5 54 75 29 58 77 32 36 15 13 41 17 38 71 72 63 27 2 68 19 61 16 28 39 48 66 20 80 23 34 22 8 24 55 33 30 64 6 81 69 
667
